p cnf 153 972
-111 -441 0
-112 -442 0
-113 -443 0
-114 -444 0
-115 -445 0
-116 -446 0
-117 -447 0
-118 -448 0
-119 -449 0
-111 -551 0
-112 -552 0
-113 -553 0
-114 -554 0
-115 -555 0
-116 -556 0
-117 -557 0
-118 -558 0
-119 -559 0
-111 -661 0
-112 -662 0
-113 -663 0
-114 -664 0
-115 -665 0
-116 -666 0
-117 -667 0
-118 -668 0
-119 -669 0
-111 -771 0
-112 -772 0
-113 -773 0
-114 -774 0
-115 -775 0
-116 -776 0
-117 -777 0
-118 -778 0
-119 -779 0
-111 -881 0
-112 -882 0
-113 -883 0
-114 -884 0
-115 -885 0
-116 -886 0
-117 -887 0
-118 -888 0
-119 -889 0
-111 -991 0
-112 -992 0
-113 -993 0
-114 -994 0
-115 -995 0
-116 -996 0
-117 -997 0
-118 -998 0
-119 -999 0
-221 -441 0
-222 -442 0
-223 -443 0
-224 -444 0
-225 -445 0
-226 -446 0
-227 -447 0
-228 -448 0
-229 -449 0
-221 -551 0
-222 -552 0
-223 -553 0
-224 -554 0
-225 -555 0
-226 -556 0
-227 -557 0
-228 -558 0
-229 -559 0
-221 -661 0
-222 -662 0
-223 -663 0
-224 -664 0
-225 -665 0
-226 -666 0
-227 -667 0
-228 -668 0
-229 -669 0
-221 -771 0
-222 -772 0
-223 -773 0
-224 -774 0
-225 -775 0
-226 -776 0
-227 -777 0
-228 -778 0
-229 -779 0
-221 -881 0
-222 -882 0
-223 -883 0
-224 -884 0
-225 -885 0
-226 -886 0
-227 -887 0
-228 -888 0
-229 -889 0
-221 -991 0
-222 -992 0
-223 -993 0
-224 -994 0
-225 -995 0
-226 -996 0
-227 -997 0
-228 -998 0
-229 -999 0
-331 -441 0
-332 -442 0
-333 -443 0
-334 -444 0
-335 -445 0
-336 -446 0
-337 -447 0
-338 -448 0
-339 -449 0
-331 -551 0
-332 -552 0
-333 -553 0
-334 -554 0
-335 -555 0
-336 -556 0
-337 -557 0
-338 -558 0
-339 -559 0
-331 -661 0
-332 -662 0
-333 -663 0
-334 -664 0
-335 -665 0
-336 -666 0
-337 -667 0
-338 -668 0
-339 -669 0
-331 -771 0
-332 -772 0
-333 -773 0
-334 -774 0
-335 -775 0
-336 -776 0
-337 -777 0
-338 -778 0
-339 -779 0
-331 -881 0
-332 -882 0
-333 -883 0
-334 -884 0
-335 -885 0
-336 -886 0
-337 -887 0
-338 -888 0
-339 -889 0
-331 -991 0
-332 -992 0
-333 -993 0
-334 -994 0
-335 -995 0
-336 -996 0
-337 -997 0
-338 -998 0
-339 -999 0
-441 -111 0
-442 -112 0
-443 -113 0
-444 -114 0
-445 -115 0
-446 -116 0
-447 -117 0
-448 -118 0
-449 -119 0
-441 -221 0
-442 -222 0
-443 -223 0
-444 -224 0
-445 -225 0
-446 -226 0
-447 -227 0
-448 -228 0
-449 -229 0
-441 -331 0
-442 -332 0
-443 -333 0
-444 -334 0
-445 -335 0
-446 -336 0
-447 -337 0
-448 -338 0
-449 -339 0
-441 -771 0
-442 -772 0
-443 -773 0
-444 -774 0
-445 -775 0
-446 -776 0
-447 -777 0
-448 -778 0
-449 -779 0
-441 -881 0
-442 -882 0
-443 -883 0
-444 -884 0
-445 -885 0
-446 -886 0
-447 -887 0
-448 -888 0
-449 -889 0
-441 -991 0
-442 -992 0
-443 -993 0
-444 -994 0
-445 -995 0
-446 -996 0
-447 -997 0
-448 -998 0
-449 -999 0
-551 -111 0
-552 -112 0
-553 -113 0
-554 -114 0
-555 -115 0
-556 -116 0
-557 -117 0
-558 -118 0
-559 -119 0
-551 -221 0
-552 -222 0
-553 -223 0
-554 -224 0
-555 -225 0
-556 -226 0
-557 -227 0
-558 -228 0
-559 -229 0
-551 -331 0
-552 -332 0
-553 -333 0
-554 -334 0
-555 -335 0
-556 -336 0
-557 -337 0
-558 -338 0
-559 -339 0
-551 -771 0
-552 -772 0
-553 -773 0
-554 -774 0
-555 -775 0
-556 -776 0
-557 -777 0
-558 -778 0
-559 -779 0
-551 -881 0
-552 -882 0
-553 -883 0
-554 -884 0
-555 -885 0
-556 -886 0
-557 -887 0
-558 -888 0
-559 -889 0
-551 -991 0
-552 -992 0
-553 -993 0
-554 -994 0
-555 -995 0
-556 -996 0
-557 -997 0
-558 -998 0
-559 -999 0
-661 -111 0
-662 -112 0
-663 -113 0
-664 -114 0
-665 -115 0
-666 -116 0
-667 -117 0
-668 -118 0
-669 -119 0
-661 -221 0
-662 -222 0
-663 -223 0
-664 -224 0
-665 -225 0
-666 -226 0
-667 -227 0
-668 -228 0
-669 -229 0
-661 -331 0
-662 -332 0
-663 -333 0
-664 -334 0
-665 -335 0
-666 -336 0
-667 -337 0
-668 -338 0
-669 -339 0
-661 -771 0
-662 -772 0
-663 -773 0
-664 -774 0
-665 -775 0
-666 -776 0
-667 -777 0
-668 -778 0
-669 -779 0
-661 -881 0
-662 -882 0
-663 -883 0
-664 -884 0
-665 -885 0
-666 -886 0
-667 -887 0
-668 -888 0
-669 -889 0
-661 -991 0
-662 -992 0
-663 -993 0
-664 -994 0
-665 -995 0
-666 -996 0
-667 -997 0
-668 -998 0
-669 -999 0
-771 -111 0
-772 -112 0
-773 -113 0
-774 -114 0
-775 -115 0
-776 -116 0
-777 -117 0
-778 -118 0
-779 -119 0
-771 -221 0
-772 -222 0
-773 -223 0
-774 -224 0
-775 -225 0
-776 -226 0
-777 -227 0
-778 -228 0
-779 -229 0
-771 -331 0
-772 -332 0
-773 -333 0
-774 -334 0
-775 -335 0
-776 -336 0
-777 -337 0
-778 -338 0
-779 -339 0
-771 -441 0
-772 -442 0
-773 -443 0
-774 -444 0
-775 -445 0
-776 -446 0
-777 -447 0
-778 -448 0
-779 -449 0
-771 -551 0
-772 -552 0
-773 -553 0
-774 -554 0
-775 -555 0
-776 -556 0
-777 -557 0
-778 -558 0
-779 -559 0
-771 -661 0
-772 -662 0
-773 -663 0
-774 -664 0
-775 -665 0
-776 -666 0
-777 -667 0
-778 -668 0
-779 -669 0
-881 -111 0
-882 -112 0
-883 -113 0
-884 -114 0
-885 -115 0
-886 -116 0
-887 -117 0
-888 -118 0
-889 -119 0
-881 -221 0
-882 -222 0
-883 -223 0
-884 -224 0
-885 -225 0
-886 -226 0
-887 -227 0
-888 -228 0
-889 -229 0
-881 -331 0
-882 -332 0
-883 -333 0
-884 -334 0
-885 -335 0
-886 -336 0
-887 -337 0
-888 -338 0
-889 -339 0
-881 -441 0
-882 -442 0
-883 -443 0
-884 -444 0
-885 -445 0
-886 -446 0
-887 -447 0
-888 -448 0
-889 -449 0
-881 -551 0
-882 -552 0
-883 -553 0
-884 -554 0
-885 -555 0
-886 -556 0
-887 -557 0
-888 -558 0
-889 -559 0
-881 -661 0
-882 -662 0
-883 -663 0
-884 -664 0
-885 -665 0
-886 -666 0
-887 -667 0
-888 -668 0
-889 -669 0
-991 -111 0
-992 -112 0
-993 -113 0
-994 -114 0
-995 -115 0
-996 -116 0
-997 -117 0
-998 -118 0
-999 -119 0
-991 -221 0
-992 -222 0
-993 -223 0
-994 -224 0
-995 -225 0
-996 -226 0
-997 -227 0
-998 -228 0
-999 -229 0
-991 -331 0
-992 -332 0
-993 -333 0
-994 -334 0
-995 -335 0
-996 -336 0
-997 -337 0
-998 -338 0
-999 -339 0
-991 -441 0
-992 -442 0
-993 -443 0
-994 -444 0
-995 -445 0
-996 -446 0
-997 -447 0
-998 -448 0
-999 -449 0
-991 -551 0
-992 -552 0
-993 -553 0
-994 -554 0
-995 -555 0
-996 -556 0
-997 -557 0
-998 -558 0
-999 -559 0
-991 -661 0
-992 -662 0
-993 -663 0
-994 -664 0
-995 -665 0
-996 -666 0
-997 -667 0
-998 -668 0
-999 -669 0
-191 -461 0
-192 -462 0
-193 -463 0
-194 -464 0
-195 -465 0
-196 -466 0
-197 -467 0
-198 -468 0
-199 -469 0
-191 -551 0
-192 -552 0
-193 -553 0
-194 -554 0
-195 -555 0
-196 -556 0
-197 -557 0
-198 -558 0
-199 -559 0
-191 -641 0
-192 -642 0
-193 -643 0
-194 -644 0
-195 -645 0
-196 -646 0
-197 -647 0
-198 -648 0
-199 -649 0
-191 -731 0
-192 -732 0
-193 -733 0
-194 -734 0
-195 -735 0
-196 -736 0
-197 -737 0
-198 -738 0
-199 -739 0
-191 -821 0
-192 -822 0
-193 -823 0
-194 -824 0
-195 -825 0
-196 -826 0
-197 -827 0
-198 -828 0
-199 -829 0
-191 -911 0
-192 -912 0
-193 -913 0
-194 -914 0
-195 -915 0
-196 -916 0
-197 -917 0
-198 -918 0
-199 -919 0
-281 -461 0
-282 -462 0
-283 -463 0
-284 -464 0
-285 -465 0
-286 -466 0
-287 -467 0
-288 -468 0
-289 -469 0
-281 -551 0
-282 -552 0
-283 -553 0
-284 -554 0
-285 -555 0
-286 -556 0
-287 -557 0
-288 -558 0
-289 -559 0
-281 -641 0
-282 -642 0
-283 -643 0
-284 -644 0
-285 -645 0
-286 -646 0
-287 -647 0
-288 -648 0
-289 -649 0
-281 -731 0
-282 -732 0
-283 -733 0
-284 -734 0
-285 -735 0
-286 -736 0
-287 -737 0
-288 -738 0
-289 -739 0
-281 -821 0
-282 -822 0
-283 -823 0
-284 -824 0
-285 -825 0
-286 -826 0
-287 -827 0
-288 -828 0
-289 -829 0
-281 -911 0
-282 -912 0
-283 -913 0
-284 -914 0
-285 -915 0
-286 -916 0
-287 -917 0
-288 -918 0
-289 -919 0
-371 -461 0
-372 -462 0
-373 -463 0
-374 -464 0
-375 -465 0
-376 -466 0
-377 -467 0
-378 -468 0
-379 -469 0
-371 -551 0
-372 -552 0
-373 -553 0
-374 -554 0
-375 -555 0
-376 -556 0
-377 -557 0
-378 -558 0
-379 -559 0
-371 -641 0
-372 -642 0
-373 -643 0
-374 -644 0
-375 -645 0
-376 -646 0
-377 -647 0
-378 -648 0
-379 -649 0
-371 -731 0
-372 -732 0
-373 -733 0
-374 -734 0
-375 -735 0
-376 -736 0
-377 -737 0
-378 -738 0
-379 -739 0
-371 -821 0
-372 -822 0
-373 -823 0
-374 -824 0
-375 -825 0
-376 -826 0
-377 -827 0
-378 -828 0
-379 -829 0
-371 -911 0
-372 -912 0
-373 -913 0
-374 -914 0
-375 -915 0
-376 -916 0
-377 -917 0
-378 -918 0
-379 -919 0
-461 -191 0
-462 -192 0
-463 -193 0
-464 -194 0
-465 -195 0
-466 -196 0
-467 -197 0
-468 -198 0
-469 -199 0
-461 -281 0
-462 -282 0
-463 -283 0
-464 -284 0
-465 -285 0
-466 -286 0
-467 -287 0
-468 -288 0
-469 -289 0
-461 -371 0
-462 -372 0
-463 -373 0
-464 -374 0
-465 -375 0
-466 -376 0
-467 -377 0
-468 -378 0
-469 -379 0
-461 -731 0
-462 -732 0
-463 -733 0
-464 -734 0
-465 -735 0
-466 -736 0
-467 -737 0
-468 -738 0
-469 -739 0
-461 -821 0
-462 -822 0
-463 -823 0
-464 -824 0
-465 -825 0
-466 -826 0
-467 -827 0
-468 -828 0
-469 -829 0
-461 -911 0
-462 -912 0
-463 -913 0
-464 -914 0
-465 -915 0
-466 -916 0
-467 -917 0
-468 -918 0
-469 -919 0
-551 -191 0
-552 -192 0
-553 -193 0
-554 -194 0
-555 -195 0
-556 -196 0
-557 -197 0
-558 -198 0
-559 -199 0
-551 -281 0
-552 -282 0
-553 -283 0
-554 -284 0
-555 -285 0
-556 -286 0
-557 -287 0
-558 -288 0
-559 -289 0
-551 -371 0
-552 -372 0
-553 -373 0
-554 -374 0
-555 -375 0
-556 -376 0
-557 -377 0
-558 -378 0
-559 -379 0
-551 -731 0
-552 -732 0
-553 -733 0
-554 -734 0
-555 -735 0
-556 -736 0
-557 -737 0
-558 -738 0
-559 -739 0
-551 -821 0
-552 -822 0
-553 -823 0
-554 -824 0
-555 -825 0
-556 -826 0
-557 -827 0
-558 -828 0
-559 -829 0
-551 -911 0
-552 -912 0
-553 -913 0
-554 -914 0
-555 -915 0
-556 -916 0
-557 -917 0
-558 -918 0
-559 -919 0
-641 -191 0
-642 -192 0
-643 -193 0
-644 -194 0
-645 -195 0
-646 -196 0
-647 -197 0
-648 -198 0
-649 -199 0
-641 -281 0
-642 -282 0
-643 -283 0
-644 -284 0
-645 -285 0
-646 -286 0
-647 -287 0
-648 -288 0
-649 -289 0
-641 -371 0
-642 -372 0
-643 -373 0
-644 -374 0
-645 -375 0
-646 -376 0
-647 -377 0
-648 -378 0
-649 -379 0
-641 -731 0
-642 -732 0
-643 -733 0
-644 -734 0
-645 -735 0
-646 -736 0
-647 -737 0
-648 -738 0
-649 -739 0
-641 -821 0
-642 -822 0
-643 -823 0
-644 -824 0
-645 -825 0
-646 -826 0
-647 -827 0
-648 -828 0
-649 -829 0
-641 -911 0
-642 -912 0
-643 -913 0
-644 -914 0
-645 -915 0
-646 -916 0
-647 -917 0
-648 -918 0
-649 -919 0
-731 -191 0
-732 -192 0
-733 -193 0
-734 -194 0
-735 -195 0
-736 -196 0
-737 -197 0
-738 -198 0
-739 -199 0
-731 -281 0
-732 -282 0
-733 -283 0
-734 -284 0
-735 -285 0
-736 -286 0
-737 -287 0
-738 -288 0
-739 -289 0
-731 -371 0
-732 -372 0
-733 -373 0
-734 -374 0
-735 -375 0
-736 -376 0
-737 -377 0
-738 -378 0
-739 -379 0
-731 -461 0
-732 -462 0
-733 -463 0
-734 -464 0
-735 -465 0
-736 -466 0
-737 -467 0
-738 -468 0
-739 -469 0
-731 -551 0
-732 -552 0
-733 -553 0
-734 -554 0
-735 -555 0
-736 -556 0
-737 -557 0
-738 -558 0
-739 -559 0
-731 -641 0
-732 -642 0
-733 -643 0
-734 -644 0
-735 -645 0
-736 -646 0
-737 -647 0
-738 -648 0
-739 -649 0
-821 -191 0
-822 -192 0
-823 -193 0
-824 -194 0
-825 -195 0
-826 -196 0
-827 -197 0
-828 -198 0
-829 -199 0
-821 -281 0
-822 -282 0
-823 -283 0
-824 -284 0
-825 -285 0
-826 -286 0
-827 -287 0
-828 -288 0
-829 -289 0
-821 -371 0
-822 -372 0
-823 -373 0
-824 -374 0
-825 -375 0
-826 -376 0
-827 -377 0
-828 -378 0
-829 -379 0
-821 -461 0
-822 -462 0
-823 -463 0
-824 -464 0
-825 -465 0
-826 -466 0
-827 -467 0
-828 -468 0
-829 -469 0
-821 -551 0
-822 -552 0
-823 -553 0
-824 -554 0
-825 -555 0
-826 -556 0
-827 -557 0
-828 -558 0
-829 -559 0
-821 -641 0
-822 -642 0
-823 -643 0
-824 -644 0
-825 -645 0
-826 -646 0
-827 -647 0
-828 -648 0
-829 -649 0
-911 -191 0
-912 -192 0
-913 -193 0
-914 -194 0
-915 -195 0
-916 -196 0
-917 -197 0
-918 -198 0
-919 -199 0
-911 -281 0
-912 -282 0
-913 -283 0
-914 -284 0
-915 -285 0
-916 -286 0
-917 -287 0
-918 -288 0
-919 -289 0
-911 -371 0
-912 -372 0
-913 -373 0
-914 -374 0
-915 -375 0
-916 -376 0
-917 -377 0
-918 -378 0
-919 -379 0
-911 -461 0
-912 -462 0
-913 -463 0
-914 -464 0
-915 -465 0
-916 -466 0
-917 -467 0
-918 -468 0
-919 -469 0
-911 -551 0
-912 -552 0
-913 -553 0
-914 -554 0
-915 -555 0
-916 -556 0
-917 -557 0
-918 -558 0
-919 -559 0
-911 -641 0
-912 -642 0
-913 -643 0
-914 -644 0
-915 -645 0
-916 -646 0
-917 -647 0
-918 -648 0
-919 -649 0
